\* Steel_Company_Problem *\
Maximize
Total_Profit: 25 bands + 30 coils
Subject To
Upper_Limit_Bands: bands <= 6000
Upper_Limit_Coils: coils <= 4000
_C1: 140 bands + 200 coils = 1120000
Bounds
bands <= 6000
coils <= 4000
End
